c 3 - XORSAT
p cnf 50 200
-2 -45 -48 0
-2 45 48 0
2 -45 48 0
2 45 -48 0
4 27 37 0
-4 -27 37 0
-4 27 -37 0
4 -27 -37 0
-20 -24 -42 0
-20 24 42 0
20 -24 42 0
20 24 -42 0
6 12 21 0
-6 -12 21 0
-6 12 -21 0
6 -12 -21 0
-2 -13 -30 0
-2 13 30 0
2 -13 30 0
2 13 -30 0
-29 -35 -39 0
-29 35 39 0
29 -35 39 0
29 35 -39 0
3 8 11 0
-3 -8 11 0
-3 8 -11 0
3 -8 -11 0
19 25 38 0
-19 -25 38 0
-19 25 -38 0
19 -25 -38 0
-9 -36 -46 0
-9 36 46 0
9 -36 46 0
9 36 -46 0
-33 -43 -49 0
-33 43 49 0
33 -43 49 0
33 43 -49 0
39 44 46 0
-39 -44 46 0
-39 44 -46 0
39 -44 -46 0
10 11 14 0
-10 -11 14 0
-10 11 -14 0
10 -11 -14 0
-10 -13 -38 0
-10 13 38 0
10 -13 38 0
10 13 -38 0
-15 -39 -44 0
-15 39 44 0
15 -39 44 0
15 39 -44 0
-3 -11 -40 0
-3 11 40 0
3 -11 40 0
3 11 -40 0
-5 -7 -45 0
-5 7 45 0
5 -7 45 0
5 7 -45 0
-1 -15 -48 0
-1 15 48 0
1 -15 48 0
1 15 -48 0
-14 -24 -37 0
-14 24 37 0
14 -24 37 0
14 24 -37 0
16 26 34 0
-16 -26 34 0
-16 26 -34 0
16 -26 -34 0
-2 -3 -42 0
-2 3 42 0
2 -3 42 0
2 3 -42 0
8 22 42 0
-8 -22 42 0
-8 22 -42 0
8 -22 -42 0
4 20 47 0
-4 -20 47 0
-4 20 -47 0
4 -20 -47 0
26 31 34 0
-26 -31 34 0
-26 31 -34 0
26 -31 -34 0
12 17 23 0
-12 -17 23 0
-12 17 -23 0
12 -17 -23 0
-7 -10 -18 0
-7 10 18 0
7 -10 18 0
7 10 -18 0
-1 -23 -28 0
-1 23 28 0
1 -23 28 0
1 23 -28 0
-13 -16 -41 0
-13 16 41 0
13 -16 41 0
13 16 -41 0
28 36 50 0
-28 -36 50 0
-28 36 -50 0
28 -36 -50 0
19 33 32 0
-19 -33 32 0
-19 33 -32 0
19 -33 -32 0
-18 -35 -43 0
-18 35 43 0
18 -35 43 0
18 35 -43 0
-30 -40 -46 0
-30 40 46 0
30 -40 46 0
30 40 -46 0
-22 -48 -49 0
-22 48 49 0
22 -48 49 0
22 48 -49 0
27 38 44 0
-27 -38 44 0
-27 38 -44 0
27 -38 -44 0
-7 -15 -25 0
-7 15 25 0
7 -15 25 0
7 15 -25 0
-34 -35 -41 0
-34 35 41 0
34 -35 41 0
34 35 -41 0
6 9 28 0
-6 -9 28 0
-6 9 -28 0
6 -9 -28 0
-9 -14 -33 0
-9 14 33 0
9 -14 33 0
9 14 -33 0
5 43 45 0
-5 -43 45 0
-5 43 -45 0
5 -43 -45 0
-22 -26 -32 0
-22 26 32 0
22 -26 32 0
22 26 -32 0
-17 -23 -24 0
-17 23 24 0
17 -23 24 0
17 23 -24 0
12 29 31 0
-12 -29 31 0
-12 29 -31 0
12 -29 -31 0
1 16 25 0
-1 -16 25 0
-1 16 -25 0
1 -16 -25 0
-49 -50 -37 0
-49 50 37 0
49 -50 37 0
49 50 -37 0
21 36 40 0
-21 -36 40 0
-21 36 -40 0
21 -36 -40 0
-20 -27 -47 0
-20 27 47 0
20 -27 47 0
20 27 -47 0
-18 -41 -50 0
-18 41 50 0
18 -41 50 0
18 41 -50 0
5 17 29 0
-5 -17 29 0
-5 17 -29 0
5 -17 -29 0
-31 -47 -30 0
-31 47 30 0
31 -47 30 0
31 47 -30 0
6 19 4 0
-6 -19 4 0
-6 19 -4 0
6 -19 -4 0
-8 -21 -32 0
-8 21 32 0
8 -21 32 0
8 21 -32 0
